NAME: CVRP_BENCHMARK
TYPE: CVRP
COMMENT: none
DIMENSION: 121
NUM_DAYS: 5
CAPACITY: 200
DISTANCE: 9999999
EDGE_WEIGHT_TYPE: FUNCTION
EDGE_WEIGHT_FORMAT: EUC_2D
NODE_COORD_TYPE: TWOD_COORDS
NODE_COORD_SECTION
1	15.000 -44.000
2	15.000 -42.000
3	21.000 -40.000
4	22.000 -40.000
5	21.000 -38.000
6	22.000 -36.000
7	24.000 -36.000
8	36.000 -36.000
9	25.000 -38.000
10	24.000 -39.000
11	25.000 -40.000
12	37.000 -39.000
13	30.000 -40.000
14	29.000 -42.000
15	26.000 -42.000
16	63.000 -39.000
17	63.000 -37.000
18	14.000 -9.000
19	66.000 -39.000
20	66.000 -35.000
21	66.000 -32.000
22	68.000 -42.000
23	68.000 -36.000
24	69.000 -42.000
25	69.000 -40.000
26	69.000 -34.000
27	72.000 -42.000
28	72.000 -38.000
29	80.000 -30.000
30	74.000 -42.000
31	74.000 -40.000
32	74.000 -36.000
33	75.000 -44.000
34	77.000 -40.000
35	75.000 -37.000
36	77.000 -38.000
37	76.000 -4.000
38	76.000 -1.000
39	76.000 1.000
40	75.000 10.000
41	79.000 -2.000
42	79.000 1.000
43	79.000 7.000
44	82.000 -3.000
45	82.000 7.000
46	84.000 -3.000
47	84.000 -1.000
48	84.000 3.000
49	86.000 -3.000
50	89.000 1.000
51	89.000 5.000
52	73.000 35.000
53	73.000 38.000
54	75.000 36.000
55	75.000 40.000
56	75.000 44.000
57	77.000 35.000
58	77.000 41.000
59	80.000 32.000
60	80.000 43.000
61	83.000 37.000
62	83.000 39.000
63	83.000 44.000
64	84.000 41.000
65	85.000 35.000
66	89.000 44.000
67	27.000 38.000
68	40.000 35.000
69	25.000 40.000
70	25.000 42.000
71	34.000 41.000
72	36.000 44.000
73	36.000 38.000
74	36.000 42.000
75	36.000 44.000
76	38.000 38.000
77	40.000 40.000
78	40.000 43.000
79	44.000 41.000
80	44.000 45.000
81	0.000 -10.000
82	0.000 -5.000
83	8.000 -15.000
84	7.000 -10.000
85	6.000 -7.000
86	4.000 -5.000
87	5.000 -3.000
88	1.000 -3.000
89	8.000 -5.000
90	11.000 -6.000
91	10.000 -5.000
92	8.000 -4.000
93	10.000 -1.000
94	12.000 -1.000
95	6.000 0.000
96	10.000 0.000
97	15.000 0.000
98	20.000 10.000
99	10.000 5.000
100	12.000 6.000
101	8.000 4.000
102	6.000 3.000
103	10.000 10.000
104	8.000 8.000
105	4.000 5.000
106	5.000 6.000
107	6.000 9.000
108	18.000 -12.000
109	23.000 -7.000
110	20.000 5.000
111	3.000 -5.000
112	5.000 -9.000
113	8.000 -14.000
114	15.000 -8.000
115	20.000 1.000
116	15.000 7.000
117	6.000 -12.000
118	15.000 -10.000
119	-5.000 -5.000
120	-5.000 5.000
DEMAND_SECTION
1 25 25 25 25 25
2 7 7 7 7 7
3 13 13 -1 13 13
4 6 6 6 6 -1
5 14 14 14 14 14
6 5 5 -1 -1 5
7 -1 11 11 11 -1
8 -1 19 19 -1 19
9 -1 -1 5 5 -1
10 -1 15 15 15 15
11 15 -1 -1 15 15
12 -1 -1 -1 -1 -1
13 -1 13 13 -1 -1
14 -1 12 12 12 -1
15 18 18 18 -1 18
16 13 13 13 13 13
17 -1 18 18 18 18
18 12 -1 -1 -1 12
19 -1 17 17 17 17
20 4 -1 4 4 -1
21 7 7 7 7 -1
22 -1 12 12 12 -1
23 13 -1 13 13 13
24 8 -1 8 8 8
25 16 16 16 -1 16
26 15 15 -1 15 -1
27 6 -1 -1 6 6
28 5 -1 -1 5 5
29 9 9 9 -1 -1
30 -1 -1 -1 11 -1
31 10 10 10 10 -1
32 3 3 -1 3 3
33 -1 -1 7 7 7
34 -1 2 -1 2 -1
35 4 4 4 -1 -1
36 4 4 4 4 4
37 18 18 -1 18 -1
38 14 14 -1 14 14
39 12 12 12 -1 12
40 17 17 17 17 -1
41 20 20 -1 20 20
42 14 14 14 14 -1
43 -1 16 16 -1 16
44 10 10 10 -1 10
45 9 9 9 -1 9
46 -1 11 11 11 -1
47 7 7 7 7 7
48 -1 13 13 -1 13
49 5 5 5 5 5
50 4 -1 -1 4 4
51 21 21 21 -1 -1
52 13 13 13 13 13
53 11 -1 11 -1 11
54 12 12 12 -1 12
55 14 14 14 14 14
56 10 10 10 10 10
57 8 8 8 -1 -1
58 -1 16 -1 16 16
59 -1 -1 -1 19 -1
60 5 5 5 5 5
61 17 17 17 17 17
62 7 -1 -1 7 7
63 16 16 16 16 -1
64 14 -1 -1 -1 14
65 -1 17 -1 -1 17
66 13 -1 13 13 13
67 17 17 -1 17 -1
68 13 13 -1 13 13
69 14 14 14 -1 14
70 16 16 16 -1 16
71 7 -1 -1 7 -1
72 -1 13 13 13 13
73 -1 9 9 -1 9
74 11 11 11 -1 11
75 35 35 -1 35 -1
76 5 5 5 -1 5
77 -1 28 28 28 28
78 7 -1 -1 -1 -1
79 3 -1 3 3 3
80 10 -1 10 10 10
81 7 7 -1 7 7
82 12 -1 12 12 -1
83 11 11 11 11 11
84 10 -1 -1 10 10
85 8 -1 8 8 8
86 -1 11 11 11 -1
87 21 -1 21 -1 21
88 4 4 4 4 -1
89 -1 -1 15 15 15
90 16 16 16 16 16
91 4 4 4 4 4
92 16 16 16 16 16
93 -1 -1 -1 7 7
94 10 10 -1 10 10
95 9 9 9 9 9
96 11 -1 11 11 11
97 17 17 17 -1 -1
98 12 12 12 12 12
99 -1 -1 11 11 11
100 7 -1 7 -1 -1
101 9 9 9 -1 -1
102 -1 -1 -1 11 -1
103 12 12 -1 12 -1
104 7 7 7 -1 7
105 8 8 8 -1 8
106 -1 6 -1 6 -1
107 5 5 5 5 5
108 12 -1 12 12 -1
109 13 13 13 13 13
110 -1 7 -1 7 7
111 7 7 7 7 7
112 8 8 8 -1 -1
113 -1 11 11 11 11
114 13 13 13 13 13
115 -1 11 11 11 -1
116 10 -1 10 -1 10
117 7 -1 7 7 7
118 4 4 4 4 4
119 -1 20 20 20 -1
120 13 -1 -1 13 13
SVC_TIME_SECTION
1	0.000000	0.000000	0.000000	0.000000	0.000000	
2	0.000000	0.000000	0.000000	0.000000	0.000000	
3	0.000000	0.000000	0.000000	0.000000	0.000000	
4	0.000000	0.000000	0.000000	0.000000	0.000000	
5	0.000000	0.000000	0.000000	0.000000	0.000000	
6	0.000000	0.000000	0.000000	0.000000	0.000000	
7	0.000000	0.000000	0.000000	0.000000	0.000000	
8	0.000000	0.000000	0.000000	0.000000	0.000000	
9	0.000000	0.000000	0.000000	0.000000	0.000000	
10	0.000000	0.000000	0.000000	0.000000	0.000000	
11	0.000000	0.000000	0.000000	0.000000	0.000000	
12	0.000000	0.000000	0.000000	0.000000	0.000000	
13	0.000000	0.000000	0.000000	0.000000	0.000000	
14	0.000000	0.000000	0.000000	0.000000	0.000000	
15	0.000000	0.000000	0.000000	0.000000	0.000000	
16	0.000000	0.000000	0.000000	0.000000	0.000000	
17	0.000000	0.000000	0.000000	0.000000	0.000000	
18	0.000000	0.000000	0.000000	0.000000	0.000000	
19	0.000000	0.000000	0.000000	0.000000	0.000000	
20	0.000000	0.000000	0.000000	0.000000	0.000000	
21	0.000000	0.000000	0.000000	0.000000	0.000000	
22	0.000000	0.000000	0.000000	0.000000	0.000000	
23	0.000000	0.000000	0.000000	0.000000	0.000000	
24	0.000000	0.000000	0.000000	0.000000	0.000000	
25	0.000000	0.000000	0.000000	0.000000	0.000000	
26	0.000000	0.000000	0.000000	0.000000	0.000000	
27	0.000000	0.000000	0.000000	0.000000	0.000000	
28	0.000000	0.000000	0.000000	0.000000	0.000000	
29	0.000000	0.000000	0.000000	0.000000	0.000000	
30	0.000000	0.000000	0.000000	0.000000	0.000000	
31	0.000000	0.000000	0.000000	0.000000	0.000000	
32	0.000000	0.000000	0.000000	0.000000	0.000000	
33	0.000000	0.000000	0.000000	0.000000	0.000000	
34	0.000000	0.000000	0.000000	0.000000	0.000000	
35	0.000000	0.000000	0.000000	0.000000	0.000000	
36	0.000000	0.000000	0.000000	0.000000	0.000000	
37	0.000000	0.000000	0.000000	0.000000	0.000000	
38	0.000000	0.000000	0.000000	0.000000	0.000000	
39	0.000000	0.000000	0.000000	0.000000	0.000000	
40	0.000000	0.000000	0.000000	0.000000	0.000000	
41	0.000000	0.000000	0.000000	0.000000	0.000000	
42	0.000000	0.000000	0.000000	0.000000	0.000000	
43	0.000000	0.000000	0.000000	0.000000	0.000000	
44	0.000000	0.000000	0.000000	0.000000	0.000000	
45	0.000000	0.000000	0.000000	0.000000	0.000000	
46	0.000000	0.000000	0.000000	0.000000	0.000000	
47	0.000000	0.000000	0.000000	0.000000	0.000000	
48	0.000000	0.000000	0.000000	0.000000	0.000000	
49	0.000000	0.000000	0.000000	0.000000	0.000000	
50	0.000000	0.000000	0.000000	0.000000	0.000000	
51	0.000000	0.000000	0.000000	0.000000	0.000000	
52	0.000000	0.000000	0.000000	0.000000	0.000000	
53	0.000000	0.000000	0.000000	0.000000	0.000000	
54	0.000000	0.000000	0.000000	0.000000	0.000000	
55	0.000000	0.000000	0.000000	0.000000	0.000000	
56	0.000000	0.000000	0.000000	0.000000	0.000000	
57	0.000000	0.000000	0.000000	0.000000	0.000000	
58	0.000000	0.000000	0.000000	0.000000	0.000000	
59	0.000000	0.000000	0.000000	0.000000	0.000000	
60	0.000000	0.000000	0.000000	0.000000	0.000000	
61	0.000000	0.000000	0.000000	0.000000	0.000000	
62	0.000000	0.000000	0.000000	0.000000	0.000000	
63	0.000000	0.000000	0.000000	0.000000	0.000000	
64	0.000000	0.000000	0.000000	0.000000	0.000000	
65	0.000000	0.000000	0.000000	0.000000	0.000000	
66	0.000000	0.000000	0.000000	0.000000	0.000000	
67	0.000000	0.000000	0.000000	0.000000	0.000000	
68	0.000000	0.000000	0.000000	0.000000	0.000000	
69	0.000000	0.000000	0.000000	0.000000	0.000000	
70	0.000000	0.000000	0.000000	0.000000	0.000000	
71	0.000000	0.000000	0.000000	0.000000	0.000000	
72	0.000000	0.000000	0.000000	0.000000	0.000000	
73	0.000000	0.000000	0.000000	0.000000	0.000000	
74	0.000000	0.000000	0.000000	0.000000	0.000000	
75	0.000000	0.000000	0.000000	0.000000	0.000000	
76	0.000000	0.000000	0.000000	0.000000	0.000000	
77	0.000000	0.000000	0.000000	0.000000	0.000000	
78	0.000000	0.000000	0.000000	0.000000	0.000000	
79	0.000000	0.000000	0.000000	0.000000	0.000000	
80	0.000000	0.000000	0.000000	0.000000	0.000000	
81	0.000000	0.000000	0.000000	0.000000	0.000000	
82	0.000000	0.000000	0.000000	0.000000	0.000000	
83	0.000000	0.000000	0.000000	0.000000	0.000000	
84	0.000000	0.000000	0.000000	0.000000	0.000000	
85	0.000000	0.000000	0.000000	0.000000	0.000000	
86	0.000000	0.000000	0.000000	0.000000	0.000000	
87	0.000000	0.000000	0.000000	0.000000	0.000000	
88	0.000000	0.000000	0.000000	0.000000	0.000000	
89	0.000000	0.000000	0.000000	0.000000	0.000000	
90	0.000000	0.000000	0.000000	0.000000	0.000000	
91	0.000000	0.000000	0.000000	0.000000	0.000000	
92	0.000000	0.000000	0.000000	0.000000	0.000000	
93	0.000000	0.000000	0.000000	0.000000	0.000000	
94	0.000000	0.000000	0.000000	0.000000	0.000000	
95	0.000000	0.000000	0.000000	0.000000	0.000000	
96	0.000000	0.000000	0.000000	0.000000	0.000000	
97	0.000000	0.000000	0.000000	0.000000	0.000000	
98	0.000000	0.000000	0.000000	0.000000	0.000000	
99	0.000000	0.000000	0.000000	0.000000	0.000000	
100	0.000000	0.000000	0.000000	0.000000	0.000000	
101	0.000000	0.000000	0.000000	0.000000	0.000000	
102	0.000000	0.000000	0.000000	0.000000	0.000000	
103	0.000000	0.000000	0.000000	0.000000	0.000000	
104	0.000000	0.000000	0.000000	0.000000	0.000000	
105	0.000000	0.000000	0.000000	0.000000	0.000000	
106	0.000000	0.000000	0.000000	0.000000	0.000000	
107	0.000000	0.000000	0.000000	0.000000	0.000000	
108	0.000000	0.000000	0.000000	0.000000	0.000000	
109	0.000000	0.000000	0.000000	0.000000	0.000000	
110	0.000000	0.000000	0.000000	0.000000	0.000000	
111	0.000000	0.000000	0.000000	0.000000	0.000000	
112	0.000000	0.000000	0.000000	0.000000	0.000000	
113	0.000000	0.000000	0.000000	0.000000	0.000000	
114	0.000000	0.000000	0.000000	0.000000	0.000000	
115	0.000000	0.000000	0.000000	0.000000	0.000000	
116	0.000000	0.000000	0.000000	0.000000	0.000000	
117	0.000000	0.000000	0.000000	0.000000	0.000000	
118	0.000000	0.000000	0.000000	0.000000	0.000000	
119	0.000000	0.000000	0.000000	0.000000	0.000000	
120	0.000000	0.000000	0.000000	0.000000	0.000000	
DEPOT_SECTION
0.0000 0.00000
-1
EOF

